(set-info :smt-lib-version 2.6)
(set-info :category "crafted")
(set-logic QF_FF)
(define-sort FF0 () (_ FiniteField 52435875175126190479447740508185965837690552500527637822603658699938581184513))
(declare-fun out_alt () FF0)
(declare-fun _17_alt () FF0)
(declare-fun _16_alt () FF0)
(declare-fun _13_alt () FF0)
(declare-fun _15_alt () FF0)
(declare-fun _3_alt () FF0)
(declare-fun _6_alt () FF0)
(declare-fun _4_alt () FF0)
(declare-fun _12_alt () FF0)
(declare-fun _0_alt () FF0)
(declare-fun _11_alt () FF0)
(declare-fun _7_alt () FF0)
(declare-fun _10_alt () FF0)
(declare-fun _2_alt () FF0)
(declare-fun _9_alt () FF0)
(declare-fun _5_alt () FF0)
(declare-fun _8_alt () FF0)
(declare-fun _1_alt () FF0)
(declare-fun out () FF0)
(declare-fun _17 () FF0)
(declare-fun _16 () FF0)
(declare-fun _13 () FF0)
(declare-fun _15 () FF0)
(declare-fun _3 () FF0)
(declare-fun _6 () FF0)
(declare-fun _4 () FF0)
(declare-fun _12 () FF0)
(declare-fun _0 () FF0)
(declare-fun _11 () FF0)
(declare-fun _7 () FF0)
(declare-fun _10 () FF0)
(declare-fun _2 () FF0)
(declare-fun _9 () FF0)
(declare-fun _5 () FF0)
(declare-fun _8 () FF0)
(declare-fun _1 () FF0)
(assert 
  (let ((let0 out_alt))
  (let ((let1 _17_alt))
  (let ((let2 (= let1 let0)))
  (let ((let3 (as ff1 FF0)))
  (let ((let4 (as ff52435875175126190479447740508185965837690552500527637822603658699938581184512 FF0)))
  (let ((let5 (ff.mul let1 let4)))
  (let ((let6 _16_alt))
  (let ((let7 _13_alt))
  (let ((let8 (ff.mul let7 let4)))
  (let ((let9 (ff.add let8 let6 let5 let3)))
  (let ((let10 (ff.add let8 let3)))
  (let ((let11 (ff.mul let6 let10)))
  (let ((let12 (= let11 let9)))
  (let ((let13 (ff.mul let6 let4)))
  (let ((let14 _15_alt))
  (let ((let15 _3_alt))
  (let ((let16 (ff.add let15 let14 let13)))
  (let ((let17 (ff.mul let15 let14)))
  (let ((let18 (= let17 let16)))
  (let ((let19 (ff.mul let14 let4)))
  (let ((let20 _6_alt))
  (let ((let21 (ff.mul let20 let4)))
  (let ((let22 _4_alt))
  (let ((let23 (ff.add let22 let21 let19 let3)))
  (let ((let24 (ff.add let21 let3)))
  (let ((let25 (ff.mul let24 let22)))
  (let ((let26 (= let25 let23)))
  (let ((let27 _12_alt))
  (let ((let28 _0_alt))
  (let ((let29 (ff.mul let28 let4)))
  (let ((let30 (ff.add let29 let27)))
  (let ((let31 (ff.mul let30 let30)))
  (let ((let32 (= let31 let7)))
  (let ((let33 (ff.mul let27 let4)))
  (let ((let34 _11_alt))
  (let ((let35 _7_alt))
  (let ((let36 (ff.add let35 let34 let33)))
  (let ((let37 (ff.mul let34 let35)))
  (let ((let38 (= let37 let36)))
  (let ((let39 (ff.mul let34 let4)))
  (let ((let40 _10_alt))
  (let ((let41 _2_alt))
  (let ((let42 (ff.add let41 let40 let39)))
  (let ((let43 (ff.mul let40 let41)))
  (let ((let44 (= let43 let42)))
  (let ((let45 (ff.mul let40 let4)))
  (let ((let46 _9_alt))
  (let ((let47 _5_alt))
  (let ((let48 (ff.add let47 let46 let45)))
  (let ((let49 (ff.mul let46 let47)))
  (let ((let50 (= let49 let48)))
  (let ((let51 (ff.mul let46 let4)))
  (let ((let52 _8_alt))
  (let ((let53 (ff.add let22 let52 let51)))
  (let ((let54 (ff.mul let52 let22)))
  (let ((let55 (= let54 let53)))
  (let ((let56 (ff.mul let52 let4)))
  (let ((let57 _1_alt))
  (let ((let58 (ff.add let57 let41 let56)))
  (let ((let59 (ff.mul let41 let57)))
  (let ((let60 (= let59 let58)))
  (let ((let61 (ff.mul let35 let35)))
  (let ((let62 (= let61 let35)))
  (let ((let63 (ff.mul let20 let20)))
  (let ((let64 (= let63 let20)))
  (let ((let65 (ff.mul let47 let47)))
  (let ((let66 (= let65 let47)))
  (let ((let67 (ff.mul let22 let22)))
  (let ((let68 (= let67 let22)))
  (let ((let69 (ff.mul let15 let15)))
  (let ((let70 (= let69 let15)))
  (let ((let71 (ff.mul let41 let41)))
  (let ((let72 (= let71 let41)))
  (let ((let73 (ff.mul let57 let57)))
  (let ((let74 (= let73 let57)))
  (let ((let75 (ff.mul let28 let28)))
  (let ((let76 (= let75 let28)))
  (let ((let77 (and let76 let74 let72 let70 let68 let66 let64 let62 let60 let55 let50 let44 let38 let32 let26 let18 let12 let2)))
  (let ((let78 out))
  (let ((let79 _17))
  (let ((let80 (= let79 let78)))
  (let ((let81 (ff.mul let79 let4)))
  (let ((let82 _16))
  (let ((let83 _13))
  (let ((let84 (ff.mul let83 let4)))
  (let ((let85 (ff.add let84 let82 let81 let3)))
  (let ((let86 (ff.add let84 let3)))
  (let ((let87 (ff.mul let82 let86)))
  (let ((let88 (= let87 let85)))
  (let ((let89 (ff.mul let82 let4)))
  (let ((let90 _15))
  (let ((let91 _3))
  (let ((let92 (ff.add let91 let90 let89)))
  (let ((let93 (ff.mul let91 let90)))
  (let ((let94 (= let93 let92)))
  (let ((let95 (ff.mul let90 let4)))
  (let ((let96 _6))
  (let ((let97 (ff.mul let96 let4)))
  (let ((let98 _4))
  (let ((let99 (ff.add let98 let97 let95 let3)))
  (let ((let100 (ff.add let97 let3)))
  (let ((let101 (ff.mul let100 let98)))
  (let ((let102 (= let101 let99)))
  (let ((let103 _12))
  (let ((let104 _0))
  (let ((let105 (ff.mul let104 let4)))
  (let ((let106 (ff.add let105 let103)))
  (let ((let107 (ff.mul let106 let106)))
  (let ((let108 (= let107 let83)))
  (let ((let109 (ff.mul let103 let4)))
  (let ((let110 _11))
  (let ((let111 _7))
  (let ((let112 (ff.add let111 let110 let109)))
  (let ((let113 (ff.mul let110 let111)))
  (let ((let114 (= let113 let112)))
  (let ((let115 (ff.mul let110 let4)))
  (let ((let116 _10))
  (let ((let117 _2))
  (let ((let118 (ff.add let117 let116 let115)))
  (let ((let119 (ff.mul let116 let117)))
  (let ((let120 (= let119 let118)))
  (let ((let121 (ff.mul let116 let4)))
  (let ((let122 _9))
  (let ((let123 _5))
  (let ((let124 (ff.add let123 let122 let121)))
  (let ((let125 (ff.mul let122 let123)))
  (let ((let126 (= let125 let124)))
  (let ((let127 (ff.mul let122 let4)))
  (let ((let128 _8))
  (let ((let129 (ff.add let98 let128 let127)))
  (let ((let130 (ff.mul let128 let98)))
  (let ((let131 (= let130 let129)))
  (let ((let132 (ff.mul let128 let4)))
  (let ((let133 _1))
  (let ((let134 (ff.add let133 let117 let132)))
  (let ((let135 (ff.mul let117 let133)))
  (let ((let136 (= let135 let134)))
  (let ((let137 (ff.mul let111 let111)))
  (let ((let138 (= let137 let111)))
  (let ((let139 (ff.mul let96 let96)))
  (let ((let140 (= let139 let96)))
  (let ((let141 (ff.mul let123 let123)))
  (let ((let142 (= let141 let123)))
  (let ((let143 (ff.mul let98 let98)))
  (let ((let144 (= let143 let98)))
  (let ((let145 (ff.mul let91 let91)))
  (let ((let146 (= let145 let91)))
  (let ((let147 (ff.mul let117 let117)))
  (let ((let148 (= let147 let117)))
  (let ((let149 (ff.mul let133 let133)))
  (let ((let150 (= let149 let133)))
  (let ((let151 (ff.mul let104 let104)))
  (let ((let152 (= let151 let104)))
  (let ((let153 (and let152 let150 let148 let146 let144 let142 let140 let138 let136 let131 let126 let120 let114 let108 let102 let94 let88 let80)))
  (let ((let154 (= let78 let0)))
  (let ((let155 (not let154)))
  (let ((let156 (= let117 let41)))
  (let ((let157 (= let133 let57)))
  (let ((let158 (= let98 let22)))
  (let ((let159 (= let96 let20)))
  (let ((let160 (= let111 let35)))
  (let ((let161 (= let91 let15)))
  (let ((let162 (= let104 let28)))
  (let ((let163 (= let123 let47)))
  (let ((let164 (and let163 let162 let161 let160 let159 let158 let157 let156)))
  (let ((let165 (and let164 let155 let153 let77)))
  let165
))))))))))))))))))))))))))))))))))))))))))))))))))))))))))))))))))))))))))))))))))))))))))))))))))))))))))))))))))))))))))))))))))))))))))))))))))))))))))))))))))))))
)
(check-sat)
